# 4.2.1.46_group0_PF01370_30-85~4.2.1.47_group0_PF01370_30-85.sdpA
# All alignment positions within 5\AA of a ligand/cat site passing the sdpA filter.  Column indices start with 0.
6
8
9
39
41
43
146
208
209
211
212
222
223
242
257
